p cnf 315 2372
132 138 143 145 213 0
74 77 161 176 313 0
70 158 217 298 0
128 131 167 0
142 181 187 193 0
117 121 148 152 0
112 113 115 183 199 0
180 186 191 195 196 300 0
57 61 205 208 282 0
166 210 228 291 0
52 81 0
163 170 185 224 0
214 218 220 0
169 209 221 222 0
107 110 111 129 0
106 122 124 126 140 0
103 104 146 150 0
101 189 0
92 95 99 100 198 0
89 90 202 203 0
84 85 86 164 0
83 136 0
82 118 119 173 0
76 78 0
71 73 177 215 0
68 69 156 0
67 184 192 0
63 66 91 94 97 0
60 62 87 201 207 0
54 55 56 59 0
51 53 134 0
80 162 0
153 159 0
72 175 219 226 227 230 0
130 223 231 233 235 0
127 236 238 240 0
141 241 242 244 0
246 247 248 249 0
102 251 252 0
93 96 253 0
204 254 256 257 0
258 259 260 0
137 165 261 262 263 0
120 264 266 267 0
75 79 172 216 268 0
133 270 272 0
125 157 274 275 0
114 116 278 279 280 0
182 188 194 197 0
98 147 281 0
88 200 206 0
135 283 284 0
155 160 174 285 286 0
288 289 292 0
171 225 232 293 0
109 234 237 294 0
168 243 245 0
250 295 0
-161 -265 0
-193 -265 0
-148 -265 0
-115 -265 0
-161 -193 0
-148 -161 0
-115 -161 0
-148 -193 0
-115 -193 0
-115 -148 0
-126 -129 0
-129 -198 0
-90 -129 0
-129 -255 0
-126 -198 0
-90 -126 0
-126 -255 0
-90 -198 0
-198 -255 0
-90 -255 0
-73 -156 0
-73 -273 0
-73 -296 0
-73 -123 0
-156 -273 0
-156 -296 0
-123 -156 0
-273 -296 0
-123 -273 0
-123 -296 0
-141 -151 0
-141 -246 0
-141 -251 0
-96 -141 0
-151 -246 0
-151 -251 0
-96 -151 0
-246 -251 0
-96 -246 0
-96 -251 0
-165 -258 0
-120 -258 0
-79 -258 0
-178 -258 0
-133 -258 0
-258 -297 0
-120 -165 0
-79 -165 0
-165 -178 0
-133 -165 0
-165 -297 0
-79 -120 0
-120 -178 0
-120 -133 0
-120 -297 0
-79 -178 0
-79 -133 0
-79 -297 0
-133 -178 0
-178 -297 0
-133 -297 0
-278 -299 0
-98 -299 0
-88 -299 0
-58 -299 0
-299 -301 0
-135 -299 0
-98 -278 0
-88 -278 0
-58 -278 0
-278 -301 0
-135 -278 0
-88 -98 0
-58 -98 0
-98 -301 0
-98 -135 0
-58 -88 0
-88 -301 0
-88 -135 0
-58 -301 0
-58 -135 0
-135 -301 0
-229 -288 0
-234 -288 0
-239 -288 0
-243 -288 0
-288 -302 0
-250 -288 0
-229 -234 0
-229 -239 0
-229 -243 0
-229 -302 0
-229 -250 0
-234 -239 0
-234 -243 0
-234 -302 0
-234 -250 0
-239 -243 0
-239 -302 0
-239 -250 0
-243 -302 0
-243 -250 0
-250 -302 0
-129 -265 0
-258 -265 0
-265 -299 0
-265 -288 0
-129 -258 0
-129 -299 0
-129 -288 0
-258 -299 0
-258 -288 0
-288 -299 0
-126 -161 0
-161 -165 0
-161 -278 0
-161 -229 0
-126 -165 0
-126 -278 0
-126 -229 0
-165 -278 0
-165 -229 0
-229 -278 0
-73 -141 0
-73 -120 0
-73 -98 0
-73 -234 0
-120 -141 0
-98 -141 0
-141 -234 0
-98 -120 0
-120 -234 0
-98 -234 0
-151 -156 0
-79 -156 0
-88 -156 0
-156 -239 0
-79 -151 0
-88 -151 0
-151 -239 0
-79 -88 0
-79 -239 0
-88 -239 0
-193 -198 0
-193 -273 0
-193 -246 0
-178 -193 0
-58 -193 0
-193 -243 0
-198 -273 0
-198 -246 0
-178 -198 0
-58 -198 0
-198 -243 0
-246 -273 0
-178 -273 0
-58 -273 0
-243 -273 0
-178 -246 0
-58 -246 0
-243 -246 0
-58 -178 0
-178 -243 0
-58 -243 0
-90 -148 0
-148 -296 0
-148 -251 0
-133 -148 0
-148 -301 0
-148 -302 0
-90 -296 0
-90 -251 0
-90 -133 0
-90 -301 0
-90 -302 0
-251 -296 0
-133 -296 0
-296 -301 0
-296 -302 0
-133 -251 0
-251 -301 0
-251 -302 0
-133 -301 0
-133 -302 0
-301 -302 0
-115 -255 0
-115 -123 0
-96 -115 0
-115 -297 0
-115 -135 0
-115 -250 0
-123 -255 0
-96 -255 0
-255 -297 0
-135 -255 0
-250 -255 0
-96 -123 0
-123 -297 0
-123 -135 0
-123 -250 0
-96 -297 0
-96 -135 0
-96 -250 0
-135 -297 0
-250 -297 0
-135 -250 0
-138 -269 0
-138 -313 0
-138 -217 0
-138 -271 0
-138 -187 0
-138 -199 0
-269 -313 0
-217 -269 0
-269 -271 0
-187 -269 0
-199 -269 0
-217 -313 0
-271 -313 0
-187 -313 0
-199 -313 0
-217 -271 0
-187 -217 0
-199 -217 0
-187 -271 0
-199 -271 0
-187 -199 0
-186 -211 0
-186 -282 0
-186 -303 0
-186 -210 0
-163 -186 0
-186 -214 0
-211 -282 0
-211 -303 0
-210 -211 0
-163 -211 0
-211 -214 0
-282 -303 0
-210 -282 0
-163 -282 0
-214 -282 0
-210 -303 0
-163 -303 0
-214 -303 0
-163 -210 0
-210 -214 0
-163 -214 0
-111 -209 0
-124 -209 0
-146 -209 0
-209 -304 0
-100 -209 0
-209 -305 0
-111 -124 0
-111 -146 0
-111 -304 0
-100 -111 0
-111 -305 0
-124 -146 0
-124 -304 0
-100 -124 0
-124 -305 0
-146 -304 0
-100 -146 0
-146 -305 0
-100 -304 0
-304 -305 0
-100 -305 0
-83 -86 0
-86 -118 0
-86 -306 0
-86 -276 0
-83 -118 0
-83 -306 0
-83 -276 0
-118 -306 0
-118 -276 0
-276 -306 0
-72 -307 0
-72 -223 0
-72 -247 0
-72 -93 0
-223 -307 0
-247 -307 0
-93 -307 0
-223 -247 0
-93 -223 0
-93 -247 0
-204 -259 0
-204 -261 0
-204 -308 0
-204 -264 0
-259 -261 0
-259 -308 0
-259 -264 0
-261 -308 0
-261 -264 0
-264 -308 0
-125 -149 0
-116 -125 0
-125 -194 0
-125 -147 0
-116 -149 0
-149 -194 0
-147 -149 0
-116 -194 0
-116 -147 0
-147 -194 0
-138 -186 0
-138 -209 0
-86 -138 0
-72 -138 0
-138 -204 0
-125 -138 0
-186 -209 0
-86 -186 0
-72 -186 0
-186 -204 0
-125 -186 0
-86 -209 0
-72 -209 0
-204 -209 0
-125 -209 0
-72 -86 0
-86 -204 0
-86 -125 0
-72 -204 0
-72 -125 0
-125 -204 0
-211 -269 0
-111 -269 0
-83 -269 0
-269 -307 0
-259 -269 0
-149 -269 0
-111 -211 0
-83 -211 0
-211 -307 0
-211 -259 0
-149 -211 0
-83 -111 0
-111 -307 0
-111 -259 0
-111 -149 0
-83 -307 0
-83 -259 0
-83 -149 0
-259 -307 0
-149 -307 0
-149 -259 0
-282 -313 0
-124 -313 0
-118 -313 0
-223 -313 0
-261 -313 0
-116 -313 0
-124 -282 0
-118 -282 0
-223 -282 0
-261 -282 0
-116 -282 0
-118 -124 0
-124 -223 0
-124 -261 0
-116 -124 0
-118 -223 0
-118 -261 0
-116 -118 0
-223 -261 0
-116 -223 0
-116 -261 0
-217 -303 0
-146 -217 0
-217 -308 0
-194 -217 0
-146 -303 0
-303 -308 0
-194 -303 0
-146 -308 0
-146 -194 0
-194 -308 0
-210 -271 0
-271 -304 0
-264 -271 0
-147 -271 0
-210 -304 0
-210 -264 0
-147 -210 0
-264 -304 0
-147 -304 0
-147 -264 0
-163 -187 0
-100 -187 0
-187 -306 0
-187 -247 0
-100 -163 0
-163 -306 0
-163 -247 0
-100 -306 0
-100 -247 0
-247 -306 0
-199 -214 0
-199 -305 0
-199 -276 0
-93 -199 0
-214 -305 0
-214 -276 0
-93 -214 0
-276 -305 0
-93 -305 0
-93 -276 0
-213 -309 0
-121 -213 0
-113 -213 0
-121 -309 0
-113 -309 0
-113 -121 0
-65 -191 0
-191 -290 0
-191 -218 0
-65 -290 0
-65 -218 0
-218 -290 0
-67 -310 0
-62 -310 0
-310 -311 0
-62 -67 0
-67 -311 0
-62 -311 0
-175 -312 0
-175 -236 0
-105 -175 0
-236 -312 0
-105 -312 0
-105 -236 0
-139 -172 0
-139 -270 0
-139 -314 0
-172 -270 0
-172 -314 0
-270 -314 0
-188 -200 0
-188 -212 0
-188 -283 0
-200 -212 0
-200 -283 0
-212 -283 0
-191 -213 0
-213 -310 0
-175 -213 0
-191 -310 0
-175 -191 0
-175 -310 0
-65 -309 0
-67 -309 0
-309 -312 0
-65 -67 0
-65 -312 0
-67 -312 0
-62 -236 0
-62 -139 0
-62 -188 0
-139 -236 0
-188 -236 0
-139 -188 0
-105 -311 0
-172 -311 0
-200 -311 0
-105 -172 0
-105 -200 0
-172 -200 0
-121 -290 0
-121 -270 0
-121 -212 0
-270 -290 0
-212 -290 0
-212 -270 0
-113 -218 0
-113 -314 0
-113 -283 0
-218 -314 0
-218 -283 0
-283 -314 0
-143 -315 0
-77 -143 0
-50 -143 0
-143 -167 0
-142 -143 0
-143 -152 0
-112 -143 0
-77 -315 0
-50 -315 0
-167 -315 0
-142 -315 0
-152 -315 0
-112 -315 0
-50 -77 0
-77 -167 0
-77 -142 0
-77 -152 0
-77 -112 0
-50 -167 0
-50 -142 0
-50 -152 0
-50 -112 0
-142 -167 0
-152 -167 0
-112 -167 0
-142 -152 0
-112 -142 0
-112 -152 0
-49 -195 0
-61 -195 0
-166 -195 0
-52 -195 0
-185 -195 0
-48 -195 0
-195 -220 0
-49 -61 0
-49 -166 0
-49 -52 0
-49 -185 0
-48 -49 0
-49 -220 0
-61 -166 0
-52 -61 0
-61 -185 0
-48 -61 0
-61 -220 0
-52 -166 0
-166 -185 0
-48 -166 0
-166 -220 0
-52 -185 0
-48 -52 0
-52 -220 0
-48 -185 0
-185 -220 0
-48 -220 0
-110 -221 0
-106 -221 0
-47 -221 0
-189 -221 0
-99 -221 0
-89 -221 0
-46 -221 0
-106 -110 0
-47 -110 0
-110 -189 0
-99 -110 0
-89 -110 0
-46 -110 0
-47 -106 0
-106 -189 0
-99 -106 0
-89 -106 0
-46 -106 0
-47 -189 0
-47 -99 0
-47 -89 0
-46 -47 0
-99 -189 0
-89 -189 0
-46 -189 0
-89 -99 0
-46 -99 0
-46 -89 0
-85 -136 0
-82 -85 0
-85 -215 0
-69 -85 0
-45 -85 0
-44 -85 0
-43 -85 0
-82 -136 0
-136 -215 0
-69 -136 0
-45 -136 0
-44 -136 0
-43 -136 0
-82 -215 0
-69 -82 0
-45 -82 0
-44 -82 0
-43 -82 0
-69 -215 0
-45 -215 0
-44 -215 0
-43 -215 0
-45 -69 0
-44 -69 0
-43 -69 0
-44 -45 0
-43 -45 0
-43 -44 0
-42 -184 0
-42 -66 0
-42 -59 0
-41 -42 0
-42 -53 0
-42 -162 0
-42 -159 0
-66 -184 0
-59 -184 0
-41 -184 0
-53 -184 0
-162 -184 0
-159 -184 0
-59 -66 0
-41 -66 0
-53 -66 0
-66 -162 0
-66 -159 0
-41 -59 0
-53 -59 0
-59 -162 0
-59 -159 0
-41 -53 0
-41 -162 0
-41 -159 0
-53 -162 0
-53 -159 0
-159 -162 0
-40 -226 0
-226 -231 0
-226 -241 0
-39 -226 0
-226 -248 0
-102 -226 0
-226 -253 0
-40 -231 0
-40 -241 0
-39 -40 0
-40 -248 0
-40 -102 0
-40 -253 0
-231 -241 0
-39 -231 0
-231 -248 0
-102 -231 0
-231 -253 0
-39 -241 0
-241 -248 0
-102 -241 0
-241 -253 0
-39 -248 0
-39 -102 0
-39 -253 0
-102 -248 0
-248 -253 0
-102 -253 0
-38 -274 0
-114 -274 0
-190 -274 0
-64 -274 0
-274 -284 0
-38 -114 0
-38 -190 0
-38 -64 0
-38 -284 0
-114 -190 0
-64 -114 0
-114 -284 0
-64 -190 0
-190 -284 0
-64 -284 0
-285 -289 0
-37 -285 0
-245 -285 0
-36 -285 0
-285 -295 0
-37 -289 0
-245 -289 0
-36 -289 0
-289 -295 0
-37 -245 0
-36 -37 0
-37 -295 0
-36 -245 0
-245 -295 0
-36 -295 0
-143 -195 0
-143 -221 0
-85 -143 0
-42 -143 0
-143 -226 0
-143 -274 0
-143 -285 0
-195 -221 0
-85 -195 0
-42 -195 0
-195 -226 0
-195 -274 0
-195 -285 0
-85 -221 0
-42 -221 0
-221 -226 0
-221 -274 0
-221 -285 0
-42 -85 0
-85 -226 0
-85 -274 0
-85 -285 0
-42 -226 0
-42 -274 0
-42 -285 0
-226 -274 0
-226 -285 0
-274 -285 0
-49 -315 0
-110 -315 0
-136 -315 0
-184 -315 0
-40 -315 0
-38 -315 0
-289 -315 0
-49 -110 0
-49 -136 0
-49 -184 0
-40 -49 0
-38 -49 0
-49 -289 0
-110 -136 0
-110 -184 0
-40 -110 0
-38 -110 0
-110 -289 0
-136 -184 0
-40 -136 0
-38 -136 0
-136 -289 0
-40 -184 0
-38 -184 0
-184 -289 0
-38 -40 0
-40 -289 0
-38 -289 0
-61 -77 0
-77 -106 0
-77 -82 0
-66 -77 0
-77 -231 0
-77 -114 0
-37 -77 0
-61 -106 0
-61 -82 0
-61 -66 0
-61 -231 0
-61 -114 0
-37 -61 0
-82 -106 0
-66 -106 0
-106 -231 0
-106 -114 0
-37 -106 0
-66 -82 0
-82 -231 0
-82 -114 0
-37 -82 0
-66 -231 0
-66 -114 0
-37 -66 0
-114 -231 0
-37 -231 0
-37 -114 0
-50 -166 0
-47 -50 0
-50 -215 0
-50 -59 0
-50 -241 0
-47 -166 0
-166 -215 0
-59 -166 0
-166 -241 0
-47 -215 0
-47 -59 0
-47 -241 0
-59 -215 0
-215 -241 0
-59 -241 0
-52 -167 0
-167 -189 0
-69 -167 0
-41 -167 0
-39 -167 0
-52 -189 0
-52 -69 0
-41 -52 0
-39 -52 0
-69 -189 0
-41 -189 0
-39 -189 0
-41 -69 0
-39 -69 0
-39 -41 0
-142 -185 0
-99 -142 0
-45 -142 0
-53 -142 0
-142 -248 0
-142 -190 0
-142 -245 0
-99 -185 0
-45 -185 0
-53 -185 0
-185 -248 0
-185 -190 0
-185 -245 0
-45 -99 0
-53 -99 0
-99 -248 0
-99 -190 0
-99 -245 0
-45 -53 0
-45 -248 0
-45 -190 0
-45 -245 0
-53 -248 0
-53 -190 0
-53 -245 0
-190 -248 0
-245 -248 0
-190 -245 0
-48 -152 0
-89 -152 0
-44 -152 0
-152 -162 0
-102 -152 0
-64 -152 0
-36 -152 0
-48 -89 0
-44 -48 0
-48 -162 0
-48 -102 0
-48 -64 0
-36 -48 0
-44 -89 0
-89 -162 0
-89 -102 0
-64 -89 0
-36 -89 0
-44 -162 0
-44 -102 0
-44 -64 0
-36 -44 0
-102 -162 0
-64 -162 0
-36 -162 0
-64 -102 0
-36 -102 0
-36 -64 0
-112 -220 0
-46 -112 0
-43 -112 0
-112 -159 0
-112 -253 0
-112 -284 0
-112 -295 0
-46 -220 0
-43 -220 0
-159 -220 0
-220 -253 0
-220 -284 0
-220 -295 0
-43 -46 0
-46 -159 0
-46 -253 0
-46 -284 0
-46 -295 0
-43 -159 0
-43 -253 0
-43 -284 0
-43 -295 0
-159 -253 0
-159 -284 0
-159 -295 0
-253 -284 0
-253 -295 0
-284 -295 0
-74 -145 0
-145 -158 0
-35 -145 0
-145 -181 0
-117 -145 0
-74 -158 0
-35 -74 0
-74 -181 0
-74 -117 0
-35 -158 0
-158 -181 0
-117 -158 0
-35 -181 0
-35 -117 0
-117 -181 0
-180 -205 0
-154 -180 0
-180 -291 0
-170 -180 0
-33 -180 0
-154 -205 0
-205 -291 0
-170 -205 0
-33 -205 0
-154 -291 0
-154 -170 0
-33 -154 0
-170 -291 0
-33 -291 0
-33 -170 0
-140 -169 0
-150 -169 0
-32 -169 0
-95 -169 0
-169 -202 0
-140 -150 0
-32 -140 0
-95 -140 0
-140 -202 0
-32 -150 0
-95 -150 0
-150 -202 0
-32 -95 0
-32 -202 0
-95 -202 0
-119 -164 0
-78 -164 0
-164 -177 0
-31 -164 0
-30 -164 0
-78 -119 0
-119 -177 0
-31 -119 0
-30 -119 0
-78 -177 0
-31 -78 0
-30 -78 0
-31 -177 0
-30 -177 0
-30 -31 0
-29 -97 0
-29 -87 0
-29 -56 0
-29 -134 0
-29 -80 0
-87 -97 0
-56 -97 0
-97 -134 0
-80 -97 0
-56 -87 0
-87 -134 0
-80 -87 0
-56 -134 0
-56 -80 0
-80 -134 0
-227 -233 0
-227 -238 0
-227 -242 0
-227 -249 0
-227 -252 0
-233 -238 0
-233 -242 0
-233 -249 0
-233 -252 0
-238 -242 0
-238 -249 0
-238 -252 0
-242 -249 0
-242 -252 0
-249 -252 0
-145 -180 0
-145 -169 0
-145 -164 0
-29 -145 0
-145 -227 0
-169 -180 0
-164 -180 0
-29 -180 0
-180 -227 0
-164 -169 0
-29 -169 0
-169 -227 0
-29 -164 0
-164 -227 0
-29 -227 0
-74 -205 0
-74 -140 0
-74 -119 0
-74 -97 0
-74 -233 0
-140 -205 0
-119 -205 0
-97 -205 0
-205 -233 0
-119 -140 0
-97 -140 0
-140 -233 0
-97 -119 0
-119 -233 0
-97 -233 0
-154 -158 0
-150 -158 0
-78 -158 0
-87 -158 0
-158 -238 0
-150 -154 0
-78 -154 0
-87 -154 0
-154 -238 0
-78 -150 0
-87 -150 0
-150 -238 0
-78 -87 0
-78 -238 0
-87 -238 0
-35 -291 0
-32 -35 0
-35 -177 0
-35 -56 0
-35 -242 0
-32 -291 0
-177 -291 0
-56 -291 0
-242 -291 0
-32 -177 0
-32 -56 0
-32 -242 0
-56 -177 0
-177 -242 0
-56 -242 0
-170 -181 0
-95 -181 0
-31 -181 0
-134 -181 0
-181 -249 0
-95 -170 0
-31 -170 0
-134 -170 0
-170 -249 0
-31 -95 0
-95 -134 0
-95 -249 0
-31 -134 0
-31 -249 0
-134 -249 0
-33 -117 0
-117 -202 0
-30 -117 0
-80 -117 0
-117 -252 0
-33 -202 0
-30 -33 0
-33 -80 0
-33 -252 0
-30 -202 0
-80 -202 0
-202 -252 0
-30 -80 0
-30 -252 0
-80 -252 0
-28 -196 0
-196 -208 0
-196 -224 0
-108 -196 0
-28 -208 0
-28 -224 0
-28 -108 0
-208 -224 0
-108 -208 0
-108 -224 0
-107 -222 0
-122 -222 0
-92 -222 0
-203 -222 0
-107 -122 0
-92 -107 0
-107 -203 0
-92 -122 0
-122 -203 0
-92 -203 0
-27 -192 0
-27 -94 0
-27 -201 0
-26 -27 0
-94 -192 0
-192 -201 0
-26 -192 0
-94 -201 0
-26 -94 0
-26 -201 0
-25 -230 0
-130 -230 0
-127 -230 0
-24 -230 0
-25 -130 0
-25 -127 0
-24 -25 0
-127 -130 0
-24 -130 0
-24 -127 0
-254 -260 0
-254 -262 0
-23 -254 0
-75 -254 0
-144 -254 0
-254 -272 0
-260 -262 0
-23 -260 0
-75 -260 0
-144 -260 0
-260 -272 0
-23 -262 0
-75 -262 0
-144 -262 0
-262 -272 0
-23 -75 0
-23 -144 0
-23 -272 0
-75 -144 0
-75 -272 0
-144 -272 0
-34 -157 0
-157 -279 0
-157 -182 0
-157 -206 0
-157 -179 0
-22 -157 0
-34 -279 0
-34 -182 0
-34 -206 0
-34 -179 0
-22 -34 0
-182 -279 0
-206 -279 0
-179 -279 0
-22 -279 0
-182 -206 0
-179 -182 0
-22 -182 0
-179 -206 0
-22 -206 0
-22 -179 0
-155 -292 0
-21 -155 0
-155 -171 0
-20 -155 0
-155 -168 0
-19 -155 0
-21 -292 0
-171 -292 0
-20 -292 0
-168 -292 0
-19 -292 0
-21 -171 0
-20 -21 0
-21 -168 0
-19 -21 0
-20 -171 0
-168 -171 0
-19 -171 0
-20 -168 0
-19 -20 0
-19 -168 0
-196 -222 0
-27 -196 0
-196 -230 0
-196 -254 0
-157 -196 0
-155 -196 0
-27 -222 0
-222 -230 0
-222 -254 0
-157 -222 0
-155 -222 0
-27 -230 0
-27 -254 0
-27 -157 0
-27 -155 0
-230 -254 0
-157 -230 0
-155 -230 0
-157 -254 0
-155 -254 0
-155 -157 0
-28 -107 0
-28 -192 0
-25 -28 0
-28 -260 0
-28 -34 0
-28 -292 0
-107 -192 0
-25 -107 0
-107 -260 0
-34 -107 0
-107 -292 0
-25 -192 0
-192 -260 0
-34 -192 0
-192 -292 0
-25 -260 0
-25 -34 0
-25 -292 0
-34 -260 0
-260 -292 0
-34 -292 0
-122 -208 0
-94 -208 0
-130 -208 0
-208 -262 0
-208 -279 0
-21 -208 0
-94 -122 0
-122 -130 0
-122 -262 0
-122 -279 0
-21 -122 0
-94 -130 0
-94 -262 0
-94 -279 0
-21 -94 0
-130 -262 0
-130 -279 0
-21 -130 0
-262 -279 0
-21 -262 0
-21 -279 0
-127 -201 0
-23 -201 0
-182 -201 0
-171 -201 0
-23 -127 0
-127 -182 0
-127 -171 0
-23 -182 0
-23 -171 0
-171 -182 0
-24 -26 0
-26 -75 0
-26 -206 0
-20 -26 0
-24 -75 0
-24 -206 0
-20 -24 0
-75 -206 0
-20 -75 0
-20 -206 0
-92 -224 0
-144 -224 0
-179 -224 0
-168 -224 0
-92 -144 0
-92 -179 0
-92 -168 0
-144 -179 0
-144 -168 0
-168 -179 0
-108 -203 0
-108 -272 0
-22 -108 0
-19 -108 0
-203 -272 0
-22 -203 0
-19 -203 0
-22 -272 0
-19 -272 0
-19 -22 0
-18 -104 0
-84 -173 0
-17 -84 0
-17 -173 0
-16 -91 0
-16 -153 0
-91 -153 0
-275 -280 0
-197 -275 0
-275 -281 0
-197 -280 0
-280 -281 0
-197 -281 0
-15 -174 0
-174 -225 0
-109 -174 0
-15 -225 0
-15 -109 0
-109 -225 0
-16 -84 0
-84 -275 0
-84 -174 0
-16 -275 0
-16 -174 0
-174 -275 0
-91 -173 0
-173 -280 0
-15 -173 0
-91 -280 0
-15 -91 0
-15 -280 0
-104 -197 0
-104 -225 0
-197 -225 0
-18 -281 0
-18 -109 0
-109 -281 0
-17 -153 0
-14 -70 0
-70 -131 0
-70 -183 0
-14 -131 0
-14 -183 0
-131 -183 0
-13 -103 0
-101 -103 0
-12 -103 0
-13 -101 0
-12 -13 0
-12 -101 0
-11 -63 0
-11 -207 0
-11 -55 0
-10 -11 0
-63 -207 0
-55 -63 0
-10 -63 0
-55 -207 0
-10 -207 0
-10 -55 0
-219 -235 0
-219 -240 0
-219 -244 0
-9 -219 0
-235 -240 0
-235 -244 0
-9 -235 0
-240 -244 0
-9 -240 0
-9 -244 0
-256 -263 0
-8 -256 0
-256 -266 0
-256 -268 0
-8 -263 0
-263 -266 0
-263 -268 0
-8 -266 0
-8 -268 0
-266 -268 0
-7 -286 0
-286 -293 0
-237 -286 0
-6 -286 0
-7 -293 0
-7 -237 0
-6 -7 0
-237 -293 0
-6 -293 0
-6 -237 0
-11 -219 0
-11 -256 0
-11 -286 0
-219 -256 0
-219 -286 0
-256 -286 0
-63 -235 0
-63 -263 0
-7 -63 0
-235 -263 0
-7 -235 0
-7 -263 0
-70 -103 0
-70 -207 0
-70 -240 0
-8 -70 0
-70 -293 0
-103 -207 0
-103 -240 0
-8 -103 0
-103 -293 0
-207 -240 0
-8 -207 0
-207 -293 0
-8 -240 0
-240 -293 0
-8 -293 0
-13 -14 0
-14 -55 0
-14 -244 0
-14 -266 0
-14 -237 0
-13 -55 0
-13 -244 0
-13 -266 0
-13 -237 0
-55 -244 0
-55 -266 0
-55 -237 0
-244 -266 0
-237 -244 0
-237 -266 0
-101 -131 0
-10 -131 0
-9 -131 0
-131 -268 0
-6 -131 0
-10 -101 0
-9 -101 0
-101 -268 0
-6 -101 0
-9 -10 0
-10 -268 0
-6 -10 0
-9 -268 0
-6 -9 0
-6 -268 0
-12 -183 0
-132 -176 0
-132 -298 0
-132 -277 0
-128 -132 0
-176 -298 0
-176 -277 0
-128 -176 0
-277 -298 0
-128 -298 0
-128 -277 0
-57 -300 0
-287 -300 0
-228 -300 0
-81 -300 0
-57 -287 0
-57 -228 0
-57 -81 0
-228 -287 0
-81 -287 0
-81 -228 0
-71 -76 0
-68 -76 0
-5 -76 0
-68 -71 0
-5 -71 0
-5 -68 0
-54 -60 0
-4 -60 0
-51 -60 0
-4 -54 0
-51 -54 0
-4 -51 0
-137 -257 0
-3 -257 0
-257 -267 0
-216 -257 0
-3 -137 0
-137 -267 0
-137 -216 0
-3 -267 0
-3 -216 0
-216 -267 0
-2 -160 0
-160 -232 0
-160 -294 0
-1 -160 0
-2 -232 0
-2 -294 0
-1 -2 0
-232 -294 0
-1 -232 0
-1 -294 0
-132 -300 0
-132 -257 0
-132 -160 0
-257 -300 0
-160 -300 0
-160 -257 0
-57 -176 0
-137 -176 0
-2 -176 0
-57 -137 0
-2 -57 0
-2 -137 0
-287 -298 0
-76 -298 0
-60 -298 0
-3 -298 0
-232 -298 0
-76 -287 0
-60 -287 0
-3 -287 0
-232 -287 0
-60 -76 0
-3 -76 0
-76 -232 0
-3 -60 0
-60 -232 0
-3 -232 0
-228 -277 0
-71 -277 0
-54 -277 0
-267 -277 0
-277 -294 0
-71 -228 0
-54 -228 0
-228 -267 0
-228 -294 0
-54 -71 0
-71 -267 0
-71 -294 0
-54 -267 0
-54 -294 0
-267 -294 0
-81 -128 0
-68 -128 0
-4 -128 0
-128 -216 0
-1 -128 0
-68 -81 0
-4 -81 0
-81 -216 0
-1 -81 0
-4 -68 0
-68 -216 0
-1 -68 0
-4 -216 0
-1 -4 0
-1 -216 0
-5 -51 0
-161 -265 0
-129 -265 0
-126 -265 0
-129 -161 0
-126 -161 0
-126 -129 0
-138 -269 0
-138 -313 0
-138 -186 0
-138 -211 0
-138 -282 0
-138 -209 0
-111 -138 0
-124 -138 0
-269 -313 0
-186 -269 0
-211 -269 0
-269 -282 0
-209 -269 0
-111 -269 0
-124 -269 0
-186 -313 0
-211 -313 0
-282 -313 0
-209 -313 0
-111 -313 0
-124 -313 0
-186 -211 0
-186 -282 0
-186 -209 0
-111 -186 0
-124 -186 0
-211 -282 0
-209 -211 0
-111 -211 0
-124 -211 0
-209 -282 0
-111 -282 0
-124 -282 0
-111 -209 0
-124 -209 0
-111 -124 0
-213 -309 0
-191 -213 0
-65 -213 0
-191 -309 0
-65 -309 0
-65 -191 0
-143 -315 0
-77 -143 0
-143 -195 0
-49 -143 0
-61 -143 0
-143 -221 0
-110 -143 0
-106 -143 0
-77 -315 0
-195 -315 0
-49 -315 0
-61 -315 0
-221 -315 0
-110 -315 0
-106 -315 0
-77 -195 0
-49 -77 0
-61 -77 0
-77 -221 0
-77 -110 0
-77 -106 0
-49 -195 0
-61 -195 0
-195 -221 0
-110 -195 0
-106 -195 0
-49 -61 0
-49 -221 0
-49 -110 0
-49 -106 0
-61 -221 0
-61 -110 0
-61 -106 0
-110 -221 0
-106 -221 0
-106 -110 0
-74 -145 0
-145 -180 0
-145 -205 0
-145 -169 0
-140 -145 0
-74 -180 0
-74 -205 0
-74 -169 0
-74 -140 0
-180 -205 0
-169 -180 0
-140 -180 0
-169 -205 0
-140 -205 0
-140 -169 0
-28 -196 0
-196 -208 0
-196 -222 0
-107 -196 0
-122 -196 0
-28 -208 0
-28 -222 0
-28 -107 0
-28 -122 0
-208 -222 0
-107 -208 0
-122 -208 0
-107 -222 0
-122 -222 0
-107 -122 0
-132 -176 0
-132 -300 0
-57 -132 0
-176 -300 0
-57 -176 0
-57 -300 0
-217 -271 0
-217 -303 0
-210 -217 0
-146 -217 0
-217 -304 0
-271 -303 0
-210 -271 0
-146 -271 0
-271 -304 0
-210 -303 0
-146 -303 0
-303 -304 0
-146 -210 0
-210 -304 0
-146 -304 0
-50 -167 0
-50 -166 0
-50 -52 0
-47 -50 0
-50 -189 0
-166 -167 0
-52 -167 0
-47 -167 0
-167 -189 0
-52 -166 0
-47 -166 0
-166 -189 0
-47 -52 0
-52 -189 0
-47 -189 0
-35 -158 0
-154 -158 0
-158 -291 0
-150 -158 0
-32 -158 0
-35 -154 0
-35 -291 0
-35 -150 0
-32 -35 0
-154 -291 0
-150 -154 0
-32 -154 0
-150 -291 0
-32 -291 0
-32 -150 0
-18 -104 0
-14 -70 0
-70 -131 0
-70 -103 0
-13 -70 0
-70 -101 0
-14 -131 0
-14 -103 0
-13 -14 0
-14 -101 0
-103 -131 0
-13 -131 0
-101 -131 0
-13 -103 0
-101 -103 0
-13 -101 0
-277 -298 0
-128 -298 0
-287 -298 0
-228 -298 0
-81 -298 0
-128 -277 0
-277 -287 0
-228 -277 0
-81 -277 0
-128 -287 0
-128 -228 0
-81 -128 0
-228 -287 0
-81 -287 0
-81 -228 0
-148 -193 0
-115 -193 0
-193 -198 0
-90 -193 0
-193 -255 0
-115 -148 0
-148 -198 0
-90 -148 0
-148 -255 0
-115 -198 0
-90 -115 0
-115 -255 0
-90 -198 0
-198 -255 0
-90 -255 0
-187 -199 0
-163 -187 0
-187 -214 0
-100 -187 0
-187 -305 0
-163 -199 0
-199 -214 0
-100 -199 0
-199 -305 0
-163 -214 0
-100 -163 0
-163 -305 0
-100 -214 0
-214 -305 0
-100 -305 0
-113 -121 0
-121 -290 0
-121 -218 0
-113 -290 0
-113 -218 0
-218 -290 0
-142 -152 0
-112 -142 0
-142 -185 0
-48 -142 0
-142 -220 0
-99 -142 0
-89 -142 0
-46 -142 0
-112 -152 0
-152 -185 0
-48 -152 0
-152 -220 0
-99 -152 0
-89 -152 0
-46 -152 0
-112 -185 0
-48 -112 0
-112 -220 0
-99 -112 0
-89 -112 0
-46 -112 0
-48 -185 0
-185 -220 0
-99 -185 0
-89 -185 0
-46 -185 0
-48 -220 0
-48 -99 0
-48 -89 0
-46 -48 0
-99 -220 0
-89 -220 0
-46 -220 0
-89 -99 0
-46 -99 0
-46 -89 0
-117 -181 0
-170 -181 0
-33 -181 0
-95 -181 0
-181 -202 0
-117 -170 0
-33 -117 0
-95 -117 0
-117 -202 0
-33 -170 0
-95 -170 0
-170 -202 0
-33 -95 0
-33 -202 0
-95 -202 0
-108 -224 0
-92 -224 0
-203 -224 0
-92 -108 0
-108 -203 0
-92 -203 0
-12 -183 0
-83 -86 0
-86 -118 0
-72 -86 0
-86 -307 0
-86 -223 0
-83 -118 0
-72 -83 0
-83 -307 0
-83 -223 0
-72 -118 0
-118 -307 0
-118 -223 0
-72 -307 0
-72 -223 0
-223 -307 0
-67 -310 0
-175 -310 0
-310 -312 0
-67 -175 0
-67 -312 0
-175 -312 0
-85 -136 0
-82 -85 0
-42 -85 0
-85 -184 0
-66 -85 0
-85 -226 0
-40 -85 0
-85 -231 0
-82 -136 0
-42 -136 0
-136 -184 0
-66 -136 0
-136 -226 0
-40 -136 0
-136 -231 0
-42 -82 0
-82 -184 0
-66 -82 0
-82 -226 0
-40 -82 0
-82 -231 0
-42 -184 0
-42 -66 0
-42 -226 0
-40 -42 0
-42 -231 0
-66 -184 0
-184 -226 0
-40 -184 0
-184 -231 0
-66 -226 0
-40 -66 0
-66 -231 0
-40 -226 0
-226 -231 0
-40 -231 0
-119 -164 0
-29 -164 0
-97 -164 0
-164 -227 0
-164 -233 0
-29 -119 0
-97 -119 0
-119 -227 0
-119 -233 0
-29 -97 0
-29 -227 0
-29 -233 0
-97 -227 0
-97 -233 0
-227 -233 0
-27 -192 0
-27 -94 0
-27 -230 0
-25 -27 0
-27 -130 0
-94 -192 0
-192 -230 0
-25 -192 0
-130 -192 0
-94 -230 0
-25 -94 0
-94 -130 0
-25 -230 0
-130 -230 0
-25 -130 0
-84 -173 0
-16 -84 0
-84 -91 0
-16 -173 0
-91 -173 0
-16 -91 0
-11 -63 0
-11 -219 0
-11 -235 0
-63 -219 0
-63 -235 0
-219 -235 0
-73 -156 0
-73 -141 0
-73 -151 0
-141 -156 0
-151 -156 0
-141 -151 0
-62 -311 0
-62 -236 0
-62 -105 0
-236 -311 0
-105 -311 0
-105 -236 0
-69 -215 0
-59 -215 0
-41 -215 0
-215 -241 0
-39 -215 0
-59 -69 0
-41 -69 0
-69 -241 0
-39 -69 0
-41 -59 0
-59 -241 0
-39 -59 0
-41 -241 0
-39 -41 0
-39 -241 0
-78 -177 0
-78 -87 0
-56 -78 0
-78 -238 0
-78 -242 0
-87 -177 0
-56 -177 0
-177 -238 0
-177 -242 0
-56 -87 0
-87 -238 0
-87 -242 0
-56 -238 0
-56 -242 0
-238 -242 0
-26 -201 0
-127 -201 0
-24 -201 0
-26 -127 0
-24 -26 0
-24 -127 0
-55 -207 0
-10 -207 0
-207 -240 0
-207 -244 0
-9 -207 0
-10 -55 0
-55 -240 0
-55 -244 0
-9 -55 0
-10 -240 0
-10 -244 0
-9 -10 0
-240 -244 0
-9 -240 0
-9 -244 0
-71 -76 0
-68 -76 0
-60 -76 0
-54 -76 0
-4 -76 0
-68 -71 0
-60 -71 0
-54 -71 0
-4 -71 0
-60 -68 0
-54 -68 0
-4 -68 0
-54 -60 0
-4 -60 0
-4 -54 0
-273 -296 0
-123 -273 0
-246 -273 0
-251 -273 0
-96 -273 0
-123 -296 0
-246 -296 0
-251 -296 0
-96 -296 0
-123 -246 0
-123 -251 0
-96 -123 0
-246 -251 0
-96 -246 0
-96 -251 0
-276 -306 0
-247 -306 0
-93 -306 0
-247 -276 0
-93 -276 0
-93 -247 0
-44 -45 0
-43 -45 0
-45 -53 0
-45 -162 0
-45 -159 0
-45 -248 0
-45 -102 0
-45 -253 0
-43 -44 0
-44 -53 0
-44 -162 0
-44 -159 0
-44 -248 0
-44 -102 0
-44 -253 0
-43 -53 0
-43 -162 0
-43 -159 0
-43 -248 0
-43 -102 0
-43 -253 0
-53 -162 0
-53 -159 0
-53 -248 0
-53 -102 0
-53 -253 0
-159 -162 0
-162 -248 0
-102 -162 0
-162 -253 0
-159 -248 0
-102 -159 0
-159 -253 0
-102 -248 0
-248 -253 0
-102 -253 0
-30 -31 0
-31 -134 0
-31 -80 0
-31 -249 0
-31 -252 0
-30 -134 0
-30 -80 0
-30 -249 0
-30 -252 0
-80 -134 0
-134 -249 0
-134 -252 0
-80 -249 0
-80 -252 0
-249 -252 0
-17 -153 0
-5 -51 0
-165 -258 0
-258 -299 0
-258 -278 0
-258 -288 0
-229 -258 0
-165 -299 0
-165 -278 0
-165 -288 0
-165 -229 0
-278 -299 0
-288 -299 0
-229 -299 0
-278 -288 0
-229 -278 0
-229 -288 0
-204 -259 0
-204 -261 0
-125 -204 0
-149 -204 0
-116 -204 0
-259 -261 0
-125 -259 0
-149 -259 0
-116 -259 0
-125 -261 0
-149 -261 0
-116 -261 0
-125 -149 0
-116 -125 0
-116 -149 0
-38 -274 0
-114 -274 0
-274 -285 0
-274 -289 0
-37 -274 0
-38 -114 0
-38 -285 0
-38 -289 0
-37 -38 0
-114 -285 0
-114 -289 0
-37 -114 0
-285 -289 0
-37 -285 0
-37 -289 0
-254 -260 0
-254 -262 0
-157 -254 0
-34 -254 0
-254 -279 0
-155 -254 0
-254 -292 0
-21 -254 0
-260 -262 0
-157 -260 0
-34 -260 0
-260 -279 0
-155 -260 0
-260 -292 0
-21 -260 0
-157 -262 0
-34 -262 0
-262 -279 0
-155 -262 0
-262 -292 0
-21 -262 0
-34 -157 0
-157 -279 0
-155 -157 0
-157 -292 0
-21 -157 0
-34 -279 0
-34 -155 0
-34 -292 0
-21 -34 0
-155 -279 0
-279 -292 0
-21 -279 0
-155 -292 0
-21 -155 0
-21 -292 0
-275 -280 0
-174 -275 0
-15 -275 0
-174 -280 0
-15 -280 0
-15 -174 0
-256 -263 0
-256 -286 0
-7 -256 0
-263 -286 0
-7 -263 0
-7 -286 0
-137 -257 0
-160 -257 0
-2 -257 0
-137 -160 0
-2 -137 0
-2 -160 0
-79 -120 0
-98 -120 0
-88 -120 0
-120 -234 0
-120 -239 0
-79 -98 0
-79 -88 0
-79 -234 0
-79 -239 0
-88 -98 0
-98 -234 0
-98 -239 0
-88 -234 0
-88 -239 0
-234 -239 0
-264 -308 0
-194 -308 0
-147 -308 0
-194 -264 0
-147 -264 0
-147 -194 0
-139 -172 0
-139 -188 0
-139 -200 0
-172 -188 0
-172 -200 0
-188 -200 0
-23 -75 0
-23 -182 0
-23 -206 0
-23 -171 0
-20 -23 0
-75 -182 0
-75 -206 0
-75 -171 0
-20 -75 0
-182 -206 0
-171 -182 0
-20 -182 0
-171 -206 0
-20 -206 0
-20 -171 0
-197 -281 0
-197 -225 0
-109 -197 0
-225 -281 0
-109 -281 0
-109 -225 0
-8 -266 0
-8 -268 0
-8 -293 0
-8 -237 0
-6 -8 0
-266 -268 0
-266 -293 0
-237 -266 0
-6 -266 0
-268 -293 0
-237 -268 0
-6 -268 0
-237 -293 0
-6 -293 0
-6 -237 0
-3 -267 0
-3 -216 0
-3 -232 0
-3 -294 0
-1 -3 0
-216 -267 0
-232 -267 0
-267 -294 0
-1 -267 0
-216 -232 0
-216 -294 0
-1 -216 0
-232 -294 0
-1 -232 0
-1 -294 0
-133 -178 0
-178 -297 0
-58 -178 0
-178 -301 0
-135 -178 0
-178 -243 0
-178 -302 0
-178 -250 0
-133 -297 0
-58 -133 0
-133 -301 0
-133 -135 0
-133 -243 0
-133 -302 0
-133 -250 0
-58 -297 0
-297 -301 0
-135 -297 0
-243 -297 0
-297 -302 0
-250 -297 0
-58 -301 0
-58 -135 0
-58 -243 0
-58 -302 0
-58 -250 0
-135 -301 0
-243 -301 0
-301 -302 0
-250 -301 0
-135 -243 0
-135 -302 0
-135 -250 0
-243 -302 0
-243 -250 0
-250 -302 0
-270 -314 0
-212 -270 0
-270 -283 0
-212 -314 0
-283 -314 0
-212 -283 0
-64 -190 0
-190 -284 0
-190 -245 0
-36 -190 0
-190 -295 0
-64 -284 0
-64 -245 0
-36 -64 0
-64 -295 0
-245 -284 0
-36 -284 0
-284 -295 0
-36 -245 0
-245 -295 0
-36 -295 0
-144 -272 0
-144 -179 0
-22 -144 0
-144 -168 0
-19 -144 0
-179 -272 0
-22 -272 0
-168 -272 0
-19 -272 0
-22 -179 0
-168 -179 0
-19 -179 0
-22 -168 0
-19 -22 0
-19 -168 0
